Route #1: 22 36 9 38 13 14 41 2
Route #2: 43 29 40 23 30 17
Route #3: 4 34 39 12 3 25 6
Route #4: 1 35 18 20 16 11 10 26
Route #5: 19 24 5 21 32 42 37 33
Route #6: 7 28 27 15 8 31
Cost 937
Time 0.108359
